Version identifier: 22.1.1.0 | 2022-11-28 | 9160aff4d
CPXPARAM_ClockType                               1
CPXPARAM_Read_DataCheck                          1
CPXPARAM_Threads                                 1
CPXPARAM_TimeLimit                               7200
CPXPARAM_MIP_Tolerances_AbsMIPGap                0
CPXPARAM_MIP_Tolerances_MIPGap                   0
CPXPARAM_MIP_Tolerances_Integrality              0
Tried aggregator 4 times.
MIP Presolve eliminated 2926 rows and 21 columns.
MIP Presolve modified 1294 coefficients.
Aggregator did 528 substitutions.
Reduced MIP has 1605 rows, 1565 columns, and 6902 nonzeros.
Reduced MIP has 1565 binaries, 0 generals, 0 SOSs, and 0 indicators.
Presolve time = 0.03 sec. (20.92 ticks)
Found incumbent of value -1009.000000 after 0.05 sec. (33.27 ticks)
Probing time = 0.00 sec. (2.53 ticks)
Tried aggregator 1 time.
Detecting symmetries...
Reduced MIP has 1605 rows, 1565 columns, and 6902 nonzeros.
Reduced MIP has 1565 binaries, 0 generals, 0 SOSs, and 0 indicators.
Presolve time = 0.01 sec. (4.57 ticks)
Probing time = 0.01 sec. (2.45 ticks)
Clique table members: 4416.
MIP emphasis: balance optimality and feasibility.
MIP search method: dynamic search.
Parallel mode: none, using 1 thread.
Root relaxation solution time = 0.02 sec. (13.99 ticks)

        Nodes                                         Cuts/
   Node  Left     Objective  IInf  Best Integer    Best Bound    ItCnt     Gap

*     0+    0                        -1009.0000      262.0000           125.97%
*     0     0      integral     0      123.0000      123.0000      864    0.00%
Elapsed time = 0.09 sec. (60.99 ticks, tree = 0.00 MB, solutions = 2)

Root node processing (before b&c):
  Real time             =    0.09 sec. (61.08 ticks)
Sequential b&c:
  Real time             =    0.00 sec. (0.00 ticks)
                          ------------
Total (root+branch&cut) =    0.09 sec. (61.08 ticks)
Solution is feasible.

---------------------
@@@ MIP_optimal
>>> Benchmark mc2024_track1_006.cnf k 2 OPT 123 TimeCost 0.39024853706359863 TimeSolve 0.099456787109375 TimeRead 0.004047870635986328 TimeTrans 0.2867438793182373
